%%% static parameters %%%
timespan = 1;
Fact = [2];
Distr1 = [5];
Distr2 = [10];
Clients_N = [120];
Demand_W = [15];
Lt0 = [4];
Lt1 = [4];
SS_ = [0.85];
DS_D = [5];
K = [200];
MA = [500];
%%% dynamic parameters %%%
lost_ratio_sales_ret_th = 0.670174556682695;
lost_ratio_sales_ret_w = 16;
lost_ratio_sales_dis_th = 0.443270627493628;
lost_ratio_sales_dis_w = 11;
lost_ratio_sales_fac_th = 0.8076539733639746;
lost_ratio_sales_fac_w = 76;
stock_customer_MA_mean_relative_th = 0.551616951999532;
stock_customer_MA_mean_relative_w = 87;
stock_distributor_MA_mean_relative_th = 0.9655371087770369;
stock_distributor_MA_mean_relative_w = 74;
stock_retailer_MA_mean_relative_th = 0.48045807785769223;
stock_retailer_MA_mean_relative_w = 60;
stock_factory_MA_mean_relative_th = 0.29418658294608657;
stock_factory_MA_mean_relative_w = 73;
